NAME: line_70_6
TYPE: TSP
COMMENT: line_70_6
DIMENSION: 70
EDGE_WEIGHT_TYPE: EUC_2D
NODE_COORD_SECTION
1 0.0 426.0
2 0.0 616.0
3 0.0 250.0
4 0.0 663.0
5 0.0 558.0
6 0.0 601.0
7 0.0 529.0
8 0.0 187.0
9 0.0 216.0
10 0.0 623.0
11 0.0 88.0
12 0.0 95.0
13 0.0 237.0
14 0.0 566.0
15 0.0 283.0
16 0.0 71.0
17 0.0 75.0
18 0.0 388.0
19 0.0 165.0
20 0.0 429.0
21 0.0 583.0
22 0.0 202.0
23 0.0 588.0
24 0.0 473.0
25 0.0 52.0
26 0.0 623.0
27 0.0 199.0
28 0.0 334.0
29 0.0 568.0
30 0.0 200.0
31 0.0 617.0
32 0.0 521.0
33 0.0 427.0
34 0.0 106.0
35 0.0 397.0
36 0.0 515.0
37 0.0 497.0
38 0.0 211.0
39 0.0 492.0
40 0.0 521.0
41 0.0 562.0
42 0.0 246.0
43 0.0 63.0
44 0.0 239.0
45 0.0 92.0
46 0.0 195.0
47 0.0 421.0
48 0.0 680.0
49 0.0 352.0
50 0.0 229.0
51 0.0 452.0
52 0.0 123.0
53 0.0 209.0
54 0.0 343.0
55 0.0 63.0
56 0.0 594.0
57 0.0 74.0
58 0.0 371.0
59 0.0 296.0
60 0.0 245.0
61 0.0 659.0
62 0.0 673.0
63 0.0 304.0
64 0.0 494.0
65 0.0 372.0
66 0.0 525.0
67 0.0 525.0
68 0.0 472.0
69 0.0 0.0
70 0.0 600.0
